Optimal - objective value 2375.00000000
      1 y_0_3                    1                    1037
      3 y_0_5                    1                     440
     20 y_5_6                    1                     342
     22 y_5_8                    1                     556
     28 f_0_0_5_0                2                       0
     54 f_0_5_6_1                1                       0
     57 f_0_5_8_1                1                       0
     92 f_0_6_5_2                1                       0
    101 f_0_5_8_3                1                       0
    104 f_1_3_0_0                1                       0
    113 f_1_0_5_1                1                       0
    179 f_2_6_5_0                4                       0
    181 f_2_5_0_1                4                       0
    203 f_2_0_3_2                4                       0
    248 f_3_3_0_0                4                       0
    257 f_3_0_5_1                4                       0
    313 f_3_5_8_2                4                       0
